
List of user-set options:

                                    Name   Value                used
                           linear_solver = ma57                  yes
                  ma57_automatic_scaling = yes                   yes
                                max_iter = 200                   yes
                             mu_strategy = adaptive              yes
                             output_file = Reusable-Launch-Vehicle-Entry-ProblemIPOPTinfo.txt  yes
                             print_level = 5                     yes
                      print_user_options = yes                   yes
                                     tol = 1e-007                yes
This is Ipopt version 3.11.0, running with linear solver ma57.

Number of nonzeros in equality constraint Jacobian...:   101284
Number of nonzeros in inequality constraint Jacobian.:      115
Number of nonzeros in Lagrangian Hessian.............:    27166

Reallocating memory for MA57: lfact (954030)
Total number of variables............................:     6979
                     variables with only lower bounds:        0
                variables with lower and upper bounds:     6979
                     variables with only upper bounds:        0
Total number of equality constraints.................:     6200
Total number of inequality constraints...............:      101
        inequality constraints with only lower bounds:        0
   inequality constraints with lower and upper bounds:      101
        inequality constraints with only upper bounds:        0

iter    objective    inf_pr   inf_du lg(mu)  ||d||  lg(rg) alpha_du alpha_pr  ls
   0 -9.6057236e+003 3.50e+001 1.00e+002   0.0 0.00e+000    -  0.00e+000 0.00e+000   0
   1 -9.7573973e+003 3.38e+001 3.37e+002  -1.9 1.06e+000  -4.0 3.95e-001 3.46e-002f  1
   2 -1.0289745e+004 2.70e+001 9.72e+002  -1.3 1.19e+000    -  4.47e-001 2.00e-001f  1
   3 -1.0376532e+004 2.52e+001 9.05e+002  -2.0 8.34e-001    -  7.34e-001 6.71e-002h  1
   4 -1.0283731e+004 2.66e+001 7.86e+002  -2.8 8.46e-001    -  1.32e-001 1.32e-001s 20
   5 -9.1839682e+003 7.66e+000 7.76e+002  -1.3 2.01e+000    -  1.65e-001 6.50e-001f  1
   6 -9.3727333e+003 2.89e+000 3.46e+002  -1.6 9.47e-001    -  7.55e-001 6.23e-001h  1
   7 -9.3772299e+003 2.76e+000 1.01e+003  -2.9 4.77e-001    -  5.93e-001 4.50e-002h  1
   8 -9.4431587e+003 7.18e-001 8.30e+001  -4.0 3.80e-001    -  2.97e-001 7.40e-001h  1
   9 -9.4465138e+003 6.91e-001 6.75e+001  -8.0 6.69e-001    -  5.93e-002 3.80e-002h  1
iter    objective    inf_pr   inf_du lg(mu)  ||d||  lg(rg) alpha_du alpha_pr  ls
  10 -9.4984297e+003 1.37e-001 8.32e+001  -2.8 4.66e-001    -  6.30e-001 8.02e-001h  1
  11 -9.5124910e+003 6.80e-002 5.45e+001  -2.6 7.16e-001    -  5.61e-001 5.02e-001h  1
  12 -9.5414324e+003 2.45e-002 3.67e+001  -2.6 5.61e-001    -  1.00e+000 6.40e-001h  1
  13 -9.5643538e+003 1.24e-002 5.08e+001  -2.8 3.80e-001    -  1.00e+000 4.94e-001h  1
  14 -9.5831183e+003 5.30e-001 1.31e+002  -2.9 8.23e-001    -  1.00e+000 3.73e-001h  1
  15 -9.6056519e+003 1.23e+000 2.27e+002  -3.0 7.28e-001    -  1.00e+000 4.68e-001h  1
  16 -9.6347602e+003 6.86e-001 3.17e+002  -3.1 7.50e-001    -  9.85e-001 5.15e-001h  1
  17 -9.6502242e+003 5.33e+000 2.53e+002  -2.8 6.32e-001    -  8.40e-001 2.95e-001h  1
  18 -9.6121099e+003 2.53e-002 3.75e+002  -2.3 1.19e+000  -1.8 1.86e-001 4.24e-001f  1
  19 -9.6817605e+003 1.10e+000 9.13e+000  -2.8 1.67e-001  -0.4 9.94e-001 1.00e+000h  1
iter    objective    inf_pr   inf_du lg(mu)  ||d||  lg(rg) alpha_du alpha_pr  ls
  20 -9.6748238e+003 5.08e-003 2.70e+002  -2.1 5.49e-001  -0.9 2.21e-001 5.31e-001f  1
  21 -9.7813290e+003 3.42e-003 2.72e+002  -2.6 7.98e-001  -0.5 1.71e-001 3.18e-001h  1
  22 -9.7965339e+003 6.76e-003 2.43e+002  -2.1 5.13e+000  -1.0 1.22e-001 1.18e-001f  1
  23 -9.7427038e+003 2.89e-002 2.01e+002  -1.9 3.07e+000    -  2.14e-001 2.52e-001f  1
  24 -9.7994889e+003 1.01e-003 8.08e+000  -2.3 3.69e-001  -0.5 1.00e+000 1.00e+000h  1
  25 -9.8776281e+003 4.87e-003 7.43e+001  -2.4 3.16e-001    -  9.99e-001 7.37e-001h  1
  26 -9.8019339e+003 1.40e-002 1.09e+002  -2.0 3.96e-001  -1.0 1.00e+000 9.20e-001f  1
  27 -9.8331498e+003 3.04e-003 1.20e+002  -2.1 4.40e-001    -  6.75e-001 1.00e+000h  1
  28 -9.8780316e+003 3.35e-003 3.24e+001  -3.3 4.34e-001    -  6.50e-001 5.85e-001h  1
  29 -9.9441670e+003 2.35e+000 7.97e+001  -2.5 6.41e-001    -  5.12e-001 8.00e-001h  1
iter    objective    inf_pr   inf_du lg(mu)  ||d||  lg(rg) alpha_du alpha_pr  ls
  30 -9.9625998e+003 2.60e-002 2.57e+002  -2.5 8.93e-001    -  2.58e-001 8.39e-001h  1
  31 -9.7747865e+003 1.48e-001 2.54e+002  -2.0 4.76e+000    -  7.30e-002 3.45e-001f  1
  32 -9.8866894e+003 4.52e-002 2.21e+002  -2.5 1.11e+000  -0.6 1.86e-001 6.91e-001h  1
  33 -9.9832895e+003 6.98e-002 1.76e+002  -2.5 1.93e+000  -1.1 2.27e-001 3.73e-001f  1
  34 -9.9489839e+003 6.97e-002 1.82e+002  -2.2 1.15e+001  -1.5 1.10e-001 3.67e-002h  1
  35 -9.9995038e+003 6.49e-002 1.75e+002  -2.5 1.66e+001    -  2.82e-002 2.64e-002f  1
  36 -1.0042258e+004 3.00e+000 1.12e+002  -2.9 1.15e+000  -1.1 2.63e-001 4.42e-001h  1
  37 -1.0022272e+004 2.43e+000 1.62e+002  -2.7 6.92e-001  -1.6 8.91e-001 4.36e-001h  1
  38 -9.9950409e+003 5.43e-004 1.12e+001  -2.6 9.38e-002  -1.2 1.00e+000 1.00e+000h  1
  39 -1.0037360e+004 3.05e+000 2.47e+001  -2.7 3.47e-001  -1.6 1.00e+000 1.00e+000h  1
iter    objective    inf_pr   inf_du lg(mu)  ||d||  lg(rg) alpha_du alpha_pr  ls
  40 -1.0039546e+004 1.05e+000 3.15e+002  -2.9 2.40e-001  -1.2 1.00e+000 5.77e-001h  1
  41 -1.0041661e+004 1.76e+000 2.84e+002  -3.6 2.16e-001  -0.8 3.85e-001 1.18e-001h  1
  42 -1.0047610e+004 1.25e+000 1.53e+002  -3.6 8.47e-002  -0.4 8.10e-001 6.18e-001H  1
  43 -1.0047369e+004 1.11e+000 2.01e+002  -9.4 6.65e-002   0.1 2.40e-001 2.43e-002h  1
  44 -1.0047230e+004 1.13e+000 1.65e+002  -3.3 1.27e-001  -0.4 4.93e-001 2.30e-002h  6
  45 -1.0047210e+004 1.12e+000 2.07e+002  -9.4 7.30e-002   0.0 2.07e-001 2.10e-003h  1
  46 -1.0046635e+004 1.07e+000 1.19e+002  -3.2 1.46e-001  -0.5 7.77e-001 9.62e-002h  4
  47 -1.0046569e+004 1.05e+000 2.52e+002  -4.5 7.80e-002  -0.0 5.56e-001 8.12e-003h  1
  48 -1.0046492e+004 1.24e+000 6.92e+001  -3.3 1.86e-001  -0.5 1.00e+000 9.18e-002h  4
  49 -1.0044212e+004 3.50e-002 6.11e+001  -3.4 9.17e-002  -0.1 2.08e-001 1.89e-001h  3
iter    objective    inf_pr   inf_du lg(mu)  ||d||  lg(rg) alpha_du alpha_pr  ls
  50 -1.0049910e+004 1.62e+000 3.80e+001  -3.4 4.59e-001  -0.6 1.00e+000 4.13e-001h  1
  51 -1.0052150e+004 1.74e-003 3.32e+001  -3.1 1.55e-001  -0.1 2.73e-001 3.19e-001H  1
  52 -1.0058640e+004 2.60e-003 7.58e+001  -3.3 1.63e+000  -0.6 2.39e-001 9.78e-002h  1
  53 -1.0057212e+004 1.39e+000 6.09e+001  -3.0 2.73e-001  -0.2 8.22e-001 4.16e-001h  1
  54 -1.0077729e+004 1.16e+000 5.47e+001  -3.2 1.76e+000  -0.7 2.16e-001 1.97e-001h  1
  55 -1.0084723e+004 5.25e-003 6.47e+001  -2.6 3.29e-001  -0.3 5.11e-001 2.76e-001f  1
  56 -1.0179766e+004 1.17e+000 2.78e+002  -2.8 1.28e+000  -0.7 3.21e-001 7.44e-001f  1
  57 -1.0287138e+004 5.01e-001 2.13e+002  -2.5 1.07e+000  -1.2 2.32e-001 2.35e-001f  1
  58 -1.0379509e+004 4.62e-001 1.68e+002  -8.7 4.00e+000    -  6.24e-002 8.53e-002f  1
  59 -1.0473757e+004 1.29e-001 2.25e+002  -1.8 5.87e+000    -  5.10e-002 6.61e-002f  1
iter    objective    inf_pr   inf_du lg(mu)  ||d||  lg(rg) alpha_du alpha_pr  ls
  60 -1.0493041e+004 3.04e-002 2.62e+002  -1.7 2.03e+000  -0.8 7.50e-002 8.67e-002f  1
  61 -1.0591728e+004 2.87e-002 1.36e+002  -1.6 6.67e+000    -  9.31e-002 3.82e-002f  1
  62 -1.0780380e+004 8.46e-002 1.52e+002  -0.9 1.14e+001  -1.3 2.36e-002 1.89e-002f  1
Reallocating memory for MA57: lfact (1001767)
  63 -9.7533763e+003 6.00e-002 1.58e+003  -1.2 2.52e+000   0.1 4.27e-001 1.64e-001h  1
  64 -9.8726322e+003 4.31e-002 1.28e+003  -1.6 2.17e+000    -  1.16e-001 2.97e-001f  1
  65 -9.8010791e+003 2.37e-002 1.10e+003  -1.6 1.18e+000    -  1.01e-001 4.90e-001f  1
  66 -9.7498322e+003 1.72e-002 8.60e+002  -1.6 1.32e+000    -  1.97e-001 2.92e-001f  1
  67 -9.7349901e+003 1.18e-002 6.80e+002  -1.6 9.01e-001    -  2.47e-001 3.30e-001h  1
  68 -9.6698656e+003 1.19e-002 5.47e+002  -1.6 2.54e+000    -  2.08e-001 1.42e-001h  1
  69 -9.4895331e+003 1.20e-002 4.98e+002  -1.6 1.17e+000    -  1.49e-001 4.22e-001h  1
iter    objective    inf_pr   inf_du lg(mu)  ||d||  lg(rg) alpha_du alpha_pr  ls
  70 -8.9772506e+003 1.14e-002 4.80e+002  -1.6 3.97e-001   0.5 2.45e-001 1.00e+000h  1
  71 -8.8964065e+003 3.52e-004 3.02e+002  -1.6 5.37e-001   0.0 9.05e-001 1.00e+000H  1
  72 -9.0035703e+003 2.65e-003 3.52e+002  -1.8 1.20e-001    -  1.00e+000 6.69e-001f  1
  73 -9.2107300e+003 1.88e-003 5.05e+001  -1.9 1.30e-001    -  1.00e+000 1.00e+000f  1
  74 -9.4794953e+003 2.40e-003 6.29e+001  -2.1 1.15e-001    -  1.00e+000 1.00e+000f  1
  75 -9.6203089e+003 1.04e-002 6.17e+001  -2.2 9.27e-001    -  3.46e-001 4.20e-001f  1
  76 -9.7842036e+003 1.92e-001 7.39e+001  -2.2 1.72e+000    -  1.98e-001 2.12e-001f  1
  77 -9.8415509e+003 9.41e-003 6.67e+002  -2.2 3.17e-001    -  4.73e-001 1.00e+000f  1
  78 -9.9150333e+003 7.17e-003 3.28e+002  -2.2 5.89e-001    -  5.27e-001 5.05e-001h  1
  79 -9.9242436e+003 1.27e-002 1.19e+002  -2.2 4.82e-001    -  6.47e-001 3.17e-001h  1
iter    objective    inf_pr   inf_du lg(mu)  ||d||  lg(rg) alpha_du alpha_pr  ls
  80 -9.8658428e+003 3.84e-003 4.25e+001  -2.2 1.96e-001    -  8.05e-001 1.00e+000h  1
  81 -9.8563545e+003 3.01e-003 2.50e+001  -2.2 1.76e-001    -  1.00e+000 1.00e+000h  1
  82 -9.8437739e+003 5.50e-004 3.66e+000  -2.2 1.08e-001    -  1.00e+000 1.00e+000h  1
  83 -9.9323255e+003 1.78e-003 8.17e+001  -2.7 3.29e-001    -  1.00e+000 7.70e-001f  1
  84 -9.9985118e+003 6.31e+000 9.49e+001  -2.8 5.53e-001    -  3.01e-001 6.29e-001h  1
  85 -1.0005447e+004 4.56e+000 2.37e+002  -2.8 2.24e+000    -  2.80e-001 1.38e-001h  1
  86 -1.0022760e+004 1.76e+000 2.48e+002  -2.8 8.60e-001    -  6.23e-001 4.69e-001h  1
  87 -1.0027683e+004 1.74e-001 1.49e+002  -2.8 5.75e-001    -  4.33e-001 4.13e-001h  1
  88 -1.0040742e+004 3.88e-003 5.78e+001  -2.8 1.45e-001  -0.5 5.82e-001 6.38e-001H  1
  89 -1.0032491e+004 3.99e-001 9.67e+001  -2.8 1.39e+000  -0.9 3.67e-001 3.53e-001h  1
iter    objective    inf_pr   inf_du lg(mu)  ||d||  lg(rg) alpha_du alpha_pr  ls
  90 -1.0038862e+004 2.26e-001 6.45e+001  -2.8 2.74e-001  -0.5 5.86e-001 1.00e+000h  1
  91 -1.0040267e+004 2.47e-001 1.38e+002  -2.8 3.45e+000  -1.0 1.50e-001 4.97e-002h  1
  92 -1.0051654e+004 4.15e-003 1.75e+001  -2.8 1.87e-001  -0.6 8.26e-001 1.00e+000f  1
  93 -1.0058464e+004 7.16e-003 2.21e+001  -2.8 3.51e-001  -1.0 9.94e-001 8.49e-001h  1
  94 -1.0070658e+004 4.99e-001 1.03e+002  -3.6 3.27e-001  -1.5 7.17e-001 4.06e-001h  1
  95 -1.0078553e+004 5.45e+000 1.26e+002  -3.6 1.50e-001  -1.1 1.00e+000 4.38e-001h  1
  96 -1.0082854e+004 4.93e+000 1.13e+002  -3.7 2.22e+000  -1.6 7.68e-002 6.51e-002h  1
  97 -1.0093388e+004 3.04e+000 9.88e+001  -3.7 1.34e+000  -2.0 1.44e-001 2.32e-001h  1
  98 -1.0099066e+004 1.65e+000 5.46e+001  -2.8 1.83e+000  -1.6 2.83e-001 1.30e-001f  1
  99 -1.0101157e+004 7.88e-003 5.33e+001  -3.0 6.41e-001  -2.1 1.00e+000 2.26e-001h  1
iter    objective    inf_pr   inf_du lg(mu)  ||d||  lg(rg) alpha_du alpha_pr  ls
 100 -1.0125804e+004 4.24e-003 1.83e+001  -4.4 4.60e-001    -  6.09e-001 4.64e-001h  1
 101 -1.0130529e+004 4.33e+000 4.57e+001  -2.8 1.23e+000    -  3.90e-001 2.85e-001h  1
 102 -1.0116341e+004 5.29e-003 1.84e+001  -2.8 8.77e-001    -  2.61e-001 5.00e-001h  1
 103 -1.0119682e+004 4.70e-003 3.88e+001  -9.0 2.18e+000  -1.7 3.55e-002 1.24e-001h  1
 104 -1.0123526e+004 4.50e-003 9.77e+001  -3.9 9.67e-001    -  2.76e-001 4.09e-002h  1
 105 -1.0156269e+004 1.00e-002 7.11e+001  -3.1 1.74e+000    -  5.40e-001 3.46e-001h  1
 106 -1.0162518e+004 9.35e-003 1.31e+002  -9.1 1.10e+000    -  2.83e-001 6.83e-002h  1
 107 -1.0175942e+004 7.88e-003 8.19e+001  -2.8 2.06e+000    -  5.99e-001 1.48e-001f  1
 108 -1.0199863e+004 5.61e-003 5.66e+001  -3.0 1.40e+000    -  2.69e-001 2.91e-001h  1
 109 -1.0207802e+004 5.17e-003 1.42e+002  -2.7 1.40e+000    -  5.50e-001 8.90e-002h  1
iter    objective    inf_pr   inf_du lg(mu)  ||d||  lg(rg) alpha_du alpha_pr  ls
 110 -1.0243008e+004 1.03e-002 9.52e+001  -2.8 1.26e+000    -  1.81e-001 4.38e-001h  1
 111 -1.0247378e+004 9.89e-003 4.92e+001  -8.8 1.87e+000    -  1.71e-001 3.90e-002h  1
 112 -1.0266631e+004 7.95e-003 2.40e+002  -2.6 2.57e+000    -  1.00e+000 1.77e-001f  1
 113 -1.0310285e+004 8.61e-003 2.16e+002  -3.1 1.51e+000    -  2.58e-001 3.42e-001h  1
 114 -1.0320660e+004 6.36e-003 2.97e+002  -2.0 3.51e+000    -  1.77e-001 1.30e-001f  1
 115 -1.0328487e+004 5.81e-003 2.69e+002  -2.1 1.67e+000    -  1.77e-001 1.38e-001f  1
 116 -1.0356888e+004 5.15e-003 2.19e+002  -8.4 1.01e+000    -  1.81e-001 1.78e-001h  1
 117 -1.0375447e+004 6.69e-003 1.53e+002  -2.6 1.55e+000    -  4.51e-001 1.08e-001f  1
 118 -1.0406644e+004 3.65e-002 1.09e+002  -8.5 1.18e+000    -  1.24e-001 1.71e-001h  1
 119 -1.0437321e+004 1.50e-002 1.77e+002  -2.2 2.09e+000    -  3.31e-001 1.15e-001f  1
iter    objective    inf_pr   inf_du lg(mu)  ||d||  lg(rg) alpha_du alpha_pr  ls
 120 -1.0473872e+004 1.42e-001 2.50e+002  -3.6 1.82e+000    -  1.97e-001 8.06e-002f  1
 121 -1.0511218e+004 1.22e-001 3.11e+002  -8.5 2.26e+000  -1.2 7.33e-002 3.04e-002f  1
 122 -1.0958922e+004 1.41e+000 5.13e+003  -1.8 3.19e+000  -0.8 1.63e-001 1.56e-001f  1
 123 -1.0820548e+004 1.42e+000 1.15e+004  -1.0 9.15e-001   2.3 3.07e-001 4.06e-002h  1
 124 -9.9539249e+003 1.05e+000 7.40e+003  -1.5 6.25e-001   1.8 6.92e-002 3.57e-001h  1
 125 -1.0152776e+004 1.83e+000 6.70e+003  -1.6 5.47e-001   1.4 9.63e-002 1.04e-001f  1
 126 -1.0704803e+004 4.45e-001 2.14e+003  -1.6 5.11e-001   1.8 9.22e-002 1.00e+000f  1
 127 -1.0656262e+004 3.76e-001 5.71e+003  -1.5 1.28e+000   1.3 4.40e-001 3.00e-002h  1
 128 -1.0179819e+004 7.74e-002 2.30e+003  -1.5 1.75e+000   0.8 2.61e-001 3.89e-001h  1
 129 -1.0909810e+004 2.01e-001 5.21e+003  -1.6 2.54e-001   0.4 4.94e-001 1.00e+000f  1
iter    objective    inf_pr   inf_du lg(mu)  ||d||  lg(rg) alpha_du alpha_pr  ls
 130 -1.0565476e+004 4.37e-001 4.76e+003  -7.5 1.29e+000   0.8 8.62e-002 8.62e-002s 19
 131 -1.0378717e+004 2.19e-001 2.80e+003  -1.7 1.07e+000   1.2 6.28e-001 1.57e-001h  1
 132 -1.0342254e+004 1.65e-001 2.42e+003  -1.7 3.22e+000   0.7 1.20e-001 1.31e-001h  1
 133 -1.0222244e+004 1.22e-001 1.64e+003  -1.7 5.34e-001   0.3 1.59e-001 3.05e-001h  1
 134 -1.0320005e+004 1.77e-001 1.61e+003  -1.7 1.73e+000  -0.2 4.79e-002 3.51e-002f  1
 135 -1.0306099e+004 1.11e-001 9.14e+002  -1.7 1.05e+000   0.2 3.54e-001 4.11e-001f  1
 136 -1.0466609e+004 2.95e-001 8.05e+002  -1.7 2.26e+000  -0.3 1.11e-001 1.14e-001f  1
 137 -1.0382825e+004 2.57e-001 7.64e+002  -1.7 4.40e+000   0.2 5.77e-002 4.51e-002h  1
 138 -1.0357006e+004 2.07e-001 7.09e+002  -1.7 6.42e+000  -0.3 1.23e-001 3.57e-002h  2
 139 -1.0325163e+004 8.99e-002 7.02e+002  -1.7 2.03e+001    -  1.30e-002 1.60e-002h  1
iter    objective    inf_pr   inf_du lg(mu)  ||d||  lg(rg) alpha_du alpha_pr  ls
 140 -1.0354263e+004 1.56e-001 1.14e+003  -1.7 3.32e+000    -  5.66e-002 3.68e-003f  4
 141 -1.0365079e+004 1.33e-001 7.48e+002  -1.7 1.02e+000    -  3.25e-001 3.67e-001h  1
 142 -1.0307571e+004 7.17e-002 7.02e+002  -1.7 5.46e+000  -0.8 6.28e-002 8.80e-002h  1
 143 -1.0347463e+004 7.22e-002 5.97e+002  -1.7 1.87e+000  -0.4 6.19e-002 2.74e-001f  1
 144 -1.0271549e+004 4.22e-002 4.85e+002  -1.7 1.21e+000    -  1.94e-001 1.44e-001h  1
 145 -1.0308724e+004 4.72e-002 5.55e+002  -1.7 3.86e+001  -0.8 2.08e-003 5.95e-004f  4
 146 -1.0304849e+004 4.42e-002 5.24e+002  -1.7 7.97e+000    -  1.13e-002 2.49e-004H  1
 147 -1.0323112e+004 6.16e-002 5.48e+002  -1.7 3.56e-001  -0.4 2.17e-001 1.92e-002f  5
 148 -1.0330493e+004 6.84e-002 1.28e+003  -1.7 3.57e+000  -0.9 1.66e-001 5.13e-003f  5
 149 -1.0286316e+004 3.60e-002 1.16e+003  -1.7 3.67e+000    -  8.50e-002 1.29e-001h  1
iter    objective    inf_pr   inf_du lg(mu)  ||d||  lg(rg) alpha_du alpha_pr  ls
 150 -1.0296657e+004 4.40e-002 9.96e+002  -1.7 1.69e+000    -  2.43e-001 7.78e-003h  5
 151 -1.0282253e+004 3.60e-002 9.89e+002  -1.7 1.01e+000    -  3.25e-002 2.45e-003H  1
 152 -1.0282475e+004 3.62e-002 9.70e+002  -1.7 1.56e+000    -  4.56e-002 1.66e-004h 11
 153 -1.0282485e+004 3.62e-002 9.72e+002  -1.7 1.60e+001    -  1.18e-004 8.79e-007f 15
 154 -1.0290962e+004 4.19e-002 1.50e+003  -1.7 1.35e+002  -0.5 4.23e-003 1.38e-004f  5
 155 -1.0565278e+004 4.51e-001 1.52e+003  -1.7 6.94e-001    -  2.42e-001 4.90e-001f  1
 156 -1.0474153e+004 4.09e-001 1.21e+003  -1.7 2.79e+000  -0.0 1.51e-002 3.60e-002h  1
 157 -1.0429167e+004 3.37e-001 1.13e+003  -1.7 1.53e+000    -  8.63e-002 2.83e-002h  1
 158 -1.0266245e+004 1.52e-001 9.90e+002  -1.7 1.86e+000    -  1.32e-001 1.25e-001h  1
 159 -1.0240052e+004 1.21e-001 9.02e+002  -1.7 2.30e+000    -  9.10e-002 1.69e-001h  1
iter    objective    inf_pr   inf_du lg(mu)  ||d||  lg(rg) alpha_du alpha_pr  ls
 160 -1.0114088e+004 9.57e-002 8.49e+002  -1.7 7.48e-001    -  4.19e-002 4.35e-002H  1
 161 -1.0130809e+004 1.01e-001 8.18e+002  -1.7 2.75e+000  -0.5 1.43e-002 3.30e-003f  5
 162 -1.0136688e+004 1.08e-001 7.77e+002  -1.7 2.13e+001  -1.0 1.37e-002 6.27e-004f  5
 163 -1.0120855e+004 9.57e-002 7.76e+002  -1.7 4.10e+000  -1.5 1.71e-003 1.69e-003H  1
 164 -1.0133229e+004 1.08e-001 7.53e+002  -1.7 8.00e+000    -  1.14e-002 2.71e-003f  5
 165 -1.0306365e+004 5.68e-001 4.14e+003  -1.7 4.97e+000    -  1.46e-002 6.12e-002f  1
 166r-1.0306365e+004 5.68e-001 1.00e+003  -0.2 0.00e+000    -  0.00e+000 3.57e-007R 17
 167r-1.0268898e+004 3.03e-001 1.19e+003   0.9 5.49e+002    -  1.52e-003 6.59e-004f  1
 168 -1.0265155e+004 2.96e-001 4.81e+002  -1.7 7.13e-001    -  3.36e-001 3.23e-002h  1
 169 -1.0551600e+004 1.46e+000 1.29e+003  -1.7 6.04e-001    -  2.92e-001 7.81e-001f  1
iter    objective    inf_pr   inf_du lg(mu)  ||d||  lg(rg) alpha_du alpha_pr  ls
 170 -1.0531347e+004 1.30e+000 2.99e+002  -1.7 7.99e-001   0.8 4.91e-001 6.72e-002h  1
 171 -1.0638655e+004 1.78e+000 1.72e+002  -1.7 7.67e-001   1.2 8.82e-002 5.99e-002f  1
 172 -1.0618215e+004 1.72e+000 1.78e+002  -1.7 6.33e+000   2.5 2.01e-003 1.84e-003h  2
 173 -1.0609583e+004 1.71e+000 1.72e+002  -1.7 6.75e+000   2.0 4.03e-005 4.38e-004h  4
 174 -1.0606236e+004 1.71e+000 2.41e+003  -1.7 7.01e+001   1.6 2.56e-003 4.81e-005h  5
 175 -1.0604649e+004 1.71e+000 2.49e+003  -1.7 5.59e+000   2.0 5.34e-004 8.99e-005h  7
 176 -1.0604524e+004 1.71e+000 6.54e+003  -1.7 4.96e+001   1.5 6.41e-003 2.18e-006h 11
 177 -1.0483126e+004 1.61e+000 5.43e+003  -1.7 5.65e+000   1.9 6.34e-004 6.56e-003h  1
 178 -1.0518844e+004 1.69e+000 3.28e+003  -1.7 5.34e+000   1.5 6.47e-002 1.79e-002f  2
 179r-1.0518844e+004 1.69e+000 1.00e+003   0.2 0.00e+000   1.0 0.00e+000 3.67e-007R 13
iter    objective    inf_pr   inf_du lg(mu)  ||d||  lg(rg) alpha_du alpha_pr  ls
 180r-1.0516768e+004 7.28e-001 1.22e+003   0.5 1.57e+003    -  5.51e-003 1.06e-003f  1
 181 -1.0514909e+004 7.24e-001 1.00e+002  -1.7 1.05e+001    -  2.32e-002 4.15e-004h  1
 182 -1.0339354e+004 6.00e-001 2.03e+002  -1.7 1.17e+001    -  8.50e-003 3.17e-002h  1
 183 -1.0374587e+004 5.91e-001 2.10e+002  -1.7 8.67e+000    -  9.11e-003 3.55e-002f  1
 184 -1.0314704e+004 4.83e-001 8.01e+002  -1.7 7.82e+000    -  5.90e-002 3.29e-002h  1
 185 -1.0224354e+004 4.46e-001 1.07e+003  -1.7 5.14e+000    -  5.82e-002 1.55e-002h  1
 186 -9.9142850e+003 4.31e-001 1.28e+003  -1.7 1.38e+000    -  1.37e-001 1.32e-001h  1
 187 -1.0182236e+004 2.23e-001 1.07e+003  -1.7 2.31e-001    -  1.81e-001 4.17e-001f  1
 188 -1.0340605e+004 1.98e-001 6.31e+002  -1.7 7.22e-001    -  3.90e-001 2.14e-001f  1
 189 -1.0306678e+004 1.23e-001 3.39e+002  -1.7 7.83e-001    -  3.32e-001 4.35e-001h  1
iter    objective    inf_pr   inf_du lg(mu)  ||d||  lg(rg) alpha_du alpha_pr  ls
 190 -1.1188076e+004 4.26e-001 6.26e+003  -1.7 4.45e-001    -  2.75e-001 8.23e-001f  1
 191 -1.1152060e+004 5.35e-001 3.35e+003  -6.9 1.14e+000   2.3 7.79e-002 8.30e-002h  1
 192 -1.1100594e+004 7.34e-001 2.79e+003  -1.2 9.65e-001   1.8 5.93e-002 1.87e-001H  1
 193 -1.0986893e+004 6.94e-001 6.91e+004  -0.6 1.07e+000   2.3 9.98e-001 3.88e-002h  1
 194 -1.0690206e+004 6.13e-001 5.64e+004  -6.6 9.77e-001   1.8 2.28e-001 9.32e-002h  1
 195 -9.7292548e+003 3.17e-001 4.92e+004  -0.8 9.57e-001   1.3 9.64e-002 3.46e-001h  1
 196 -9.3467421e+003 1.64e-001 3.87e+004  -0.8 4.74e-001   0.8 2.46e-001 4.63e-001f  1
 197 -9.8999908e+003 9.26e-002 2.81e+004  -0.8 5.48e-001    -  4.02e-001 1.00e+000f  1
 198 -8.5895308e+003 4.89e-002 2.01e+004  -0.8 8.44e-001    -  3.73e-001 1.00e+000f  1
 199 -9.2457109e+003 2.61e-002 1.45e+004  -0.8 3.05e+000    -  2.71e-001 6.49e-001H  1
iter    objective    inf_pr   inf_du lg(mu)  ||d||  lg(rg) alpha_du alpha_pr  ls
 200 -9.0449664e+003 3.93e-002 1.26e+004  -0.8 1.71e+000    -  1.30e-001 4.80e-001H  1

Number of Iterations....: 200

                                   (scaled)                 (unscaled)
Objective...............: -6.0299775759879509e+001  -9.0449663639322171e+003
Dual infeasibility......:  1.2644804854951442e+004   1.8967207282322922e+006
Constraint violation....:  3.9327242821245188e-002   3.9327242821245188e-002
Complementarity.........:  4.2019845111347198e-001   6.3029767666674395e+001
Overall NLP error.......:  1.2644804854951442e+004   1.8967207282322922e+006


Number of objective function evaluations             = 412
Number of objective gradient evaluations             = 201
Number of equality constraint evaluations            = 412
Number of inequality constraint evaluations          = 412
Number of equality constraint Jacobian evaluations   = 203
Number of inequality constraint Jacobian evaluations = 203
Number of Lagrangian Hessian evaluations             = 200
Total CPU secs in IPOPT (w/o function evaluations)   =     22.729
Total CPU secs in NLP function evaluations           =    155.911

EXIT: Maximum Number of Iterations Exceeded.
